
Gurobi 7.0.2 (linux64) logging started Mon Jul 25 00:15:42 2022


Gurobi 7.0.2 (linux64) logging started Mon Jul 25 00:15:44 2022


Gurobi 7.0.2 (linux64) logging started Mon Jul 25 00:15:51 2022


Gurobi 7.0.2 (linux64) logging started Mon Jul 25 00:15:55 2022


Gurobi 7.0.2 (linux64) logging started Mon Jul 25 00:15:59 2022

